(set-logic QF_LRA)
(declare-fun fluent_started_i0_t0@0 () Bool)
(declare-fun fluent_started_i1_t0@0 () Bool)
(declare-fun fluent_started_i0_t1@0 () Bool)
(declare-fun fluent_started_i1_t1@0 () Bool)
(declare-fun fluent_started_i0_t2@0 () Bool)
(declare-fun fluent_started_i1_t2@0 () Bool)
(declare-fun fluent_started_i0_t3@0 () Bool)
(declare-fun fluent_started_i1_t3@0 () Bool)
(declare-fun fluent_started_i0_t4@0 () Bool)
(declare-fun fluent_started_i1_t4@0 () Bool)
(declare-fun fluent_started_i0_t5@0 () Bool)
(declare-fun fluent_started_i1_t5@0 () Bool)
(declare-fun fluent_started_i0_t6@0 () Bool)
(declare-fun fluent_ready_i0_t0@0 () Bool)
(declare-fun fluent_ready_i1_t0@0 () Bool)
(declare-fun fluent_ready_i0_t1@0 () Bool)
(declare-fun fluent_ready_i1_t1@0 () Bool)
(declare-fun fluent_ready_i0_t2@0 () Bool)
(declare-fun fluent_ready_i1_t2@0 () Bool)
(declare-fun fluent_ready_i0_t3@0 () Bool)
(declare-fun fluent_ready_i1_t3@0 () Bool)
(declare-fun fluent_ready_i0_t4@0 () Bool)
(declare-fun fluent_ready_i1_t4@0 () Bool)
(declare-fun fluent_ready_i0_t5@0 () Bool)
(declare-fun fluent_ready_i1_t5@0 () Bool)
(declare-fun fluent_ready_i0_t6@0 () Bool)
(declare-fun fluent_ready_i1_t6@0 () Bool)
(declare-fun fluent_started_i1_t6@0 () Bool)
(declare-fun fluent_busy_@0 () Bool)
(declare-fun fluent_treated_i0_t0@0 () Bool)
(declare-fun fluent_treated_i1_t0@0 () Bool)
(declare-fun fluent_treated_i0_t1@0 () Bool)
(declare-fun fluent_treated_i1_t1@0 () Bool)
(declare-fun fluent_treated_i0_t2@0 () Bool)
(declare-fun fluent_treated_i1_t2@0 () Bool)
(declare-fun fluent_treated_i0_t3@0 () Bool)
(declare-fun fluent_treated_i1_t3@0 () Bool)
(declare-fun fluent_treated_i0_t4@0 () Bool)
(declare-fun fluent_treated_i1_t4@0 () Bool)
(declare-fun fluent_treated_i0_t5@0 () Bool)
(declare-fun fluent_treated_i1_t5@0 () Bool)
(declare-fun fluent_treated_i0_t6@0 () Bool)
(declare-fun fluent_treated_i1_t6@0 () Bool)
(declare-fun fluent_counter_t0@1 () Real)
(declare-fun fluent_counter_t0@0 () Real)
(declare-fun fluent_counter_t1@1 () Real)
(declare-fun fluent_counter_t1@0 () Real)
(declare-fun fluent_counter_t2@1 () Real)
(declare-fun fluent_counter_t2@0 () Real)
(declare-fun fluent_counter_t3@0 () Real)
(declare-fun fluent_counter_t3@1 () Real)
(declare-fun fluent_counter_t4@0 () Real)
(declare-fun fluent_counter_t4@1 () Real)
(declare-fun fluent_counter_t5@0 () Real)
(declare-fun fluent_counter_t5@1 () Real)
(declare-fun fluent_counter_t6@0 () Real)
(declare-fun fluent_counter_t6@1 () Real)
(declare-fun fluent_busy_@1 () Bool)
(declare-fun dur_make_treatment@1 () Real)
(declare-fun fluent_started_i0_t0@1 () Bool)
(declare-fun fluent_started_i1_t0@1 () Bool)
(declare-fun t@1 () Real)
(declare-fun fluent_started_i0_t1@1 () Bool)
(declare-fun fluent_started_i1_t1@1 () Bool)
(declare-fun fluent_started_i0_t2@1 () Bool)
(declare-fun fluent_started_i1_t2@1 () Bool)
(declare-fun parameter_make_treatment_t@1 () Real)
(declare-fun fluent_started_i0_t3@1 () Bool)
(declare-fun fluent_started_i1_t3@1 () Bool)
(declare-fun fluent_started_i0_t4@1 () Bool)
(declare-fun fluent_started_i1_t4@1 () Bool)
(declare-fun parameter_make_treatment_i@1 () Real)
(declare-fun fluent_started_i0_t5@1 () Bool)
(declare-fun fluent_started_i1_t5@1 () Bool)
(declare-fun fluent_started_i0_t6@1 () Bool)
(declare-fun fluent_started_i1_t6@1 () Bool)
(declare-fun fluent_treated_i0_t0@1 () Bool)
(declare-fun fluent_treated_i1_t0@1 () Bool)
(declare-fun fluent_treated_i0_t1@1 () Bool)
(declare-fun fluent_treated_i1_t1@1 () Bool)
(declare-fun fluent_treated_i0_t2@1 () Bool)
(declare-fun fluent_treated_i1_t2@1 () Bool)
(declare-fun fluent_treated_i0_t3@1 () Bool)
(declare-fun fluent_treated_i1_t3@1 () Bool)
(declare-fun fluent_treated_i0_t4@1 () Bool)
(declare-fun fluent_treated_i1_t4@1 () Bool)
(declare-fun fluent_treated_i0_t5@1 () Bool)
(declare-fun fluent_treated_i1_t5@1 () Bool)
(declare-fun fluent_treated_i0_t6@1 () Bool)
(declare-fun fluent_treated_i1_t6@1 () Bool)
(declare-fun fluent_ready_i0_t0@1 () Bool)
(declare-fun fluent_ready_i1_t0@1 () Bool)
(declare-fun fluent_ready_i0_t1@1 () Bool)
(declare-fun fluent_ready_i1_t1@1 () Bool)
(declare-fun fluent_ready_i0_t2@1 () Bool)
(declare-fun fluent_ready_i1_t2@1 () Bool)
(declare-fun parameter_make_treatment_next@1 () Real)
(declare-fun fluent_ready_i0_t3@1 () Bool)
(declare-fun fluent_ready_i1_t3@1 () Bool)
(declare-fun fluent_ready_i0_t4@1 () Bool)
(declare-fun fluent_ready_i1_t4@1 () Bool)
(declare-fun fluent_ready_i0_t5@1 () Bool)
(declare-fun fluent_ready_i1_t5@1 () Bool)
(declare-fun fluent_ready_i0_t6@1 () Bool)
(declare-fun fluent_ready_i1_t6@1 () Bool)
(declare-fun act_make_treatment@1 () Bool)
(assert (let ((.def_0 (<= fluent_counter_t6@1 31.0))) (let ((.def_1 (<= 0.0 fluent_counter_t6@1))) (let ((.def_2 (= parameter_make_treatment_next@1 8.0))) (let ((.def_3 (= parameter_make_treatment_next@1 7.0))) (let ((.def_4 (= parameter_make_treatment_next@1 6.0))) (let ((.def_5 (= parameter_make_treatment_next@1 5.0))) (let ((.def_6 (= parameter_make_treatment_next@1 4.0))) (let ((.def_7 (= parameter_make_treatment_next@1 3.0))) (let ((.def_8 (= parameter_make_treatment_next@1 2.0))) (let ((.def_9 (or .def_8 .def_7 .def_6 .def_5 .def_4 .def_3 .def_2))) (let ((.def_10 (<= fluent_counter_t5@1 31.0))) (let ((.def_11 (<= 0.0 fluent_counter_t5@1))) (let ((.def_12 (= parameter_make_treatment_t@1 8.0))) (let ((.def_13 (= parameter_make_treatment_t@1 7.0))) (let ((.def_14 (= parameter_make_treatment_t@1 6.0))) (let ((.def_15 (= parameter_make_treatment_t@1 5.0))) (let ((.def_16 (= parameter_make_treatment_t@1 4.0))) (let ((.def_17 (= parameter_make_treatment_t@1 3.0))) (let ((.def_18 (= parameter_make_treatment_t@1 2.0))) (let ((.def_19 (or .def_18 .def_17 .def_16 .def_15 .def_14 .def_13 .def_12))) (let ((.def_20 (<= fluent_counter_t4@1 31.0))) (let ((.def_21 (<= 0.0 fluent_counter_t4@1))) (let ((.def_22 (<= fluent_counter_t3@1 31.0))) (let ((.def_23 (<= 0.0 fluent_counter_t3@1))) (let ((.def_24 (= parameter_make_treatment_i@1 1.0))) (let ((.def_25 (= parameter_make_treatment_i@1 0.0))) (let ((.def_26 (or .def_25 .def_24))) (let ((.def_27 (<= fluent_counter_t2@1 31.0))) (let ((.def_28 (<= 0.0 fluent_counter_t2@1))) (let ((.def_29 (<= fluent_counter_t1@1 31.0))) (let ((.def_30 (<= 0.0 fluent_counter_t1@1))) (let ((.def_31 (<= fluent_counter_t0@1 31.0))) (let ((.def_32 (<= 0.0 fluent_counter_t0@1))) (let ((.def_33 (and act_make_treatment@1 true .def_12))) (let ((.def_34 (= fluent_counter_t6@0 fluent_counter_t6@1))) (let ((.def_35 (not .def_34))) (let ((.def_36 (=> .def_35 .def_33))) (let ((.def_37 (and act_make_treatment@1 true .def_13))) (let ((.def_38 (= fluent_counter_t5@0 fluent_counter_t5@1))) (let ((.def_39 (not .def_38))) (let ((.def_40 (=> .def_39 .def_37))) (let ((.def_41 (and act_make_treatment@1 true .def_14))) (let ((.def_42 (= fluent_counter_t4@0 fluent_counter_t4@1))) (let ((.def_43 (not .def_42))) (let ((.def_44 (=> .def_43 .def_41))) (let ((.def_45 (and act_make_treatment@1 true .def_15))) (let ((.def_46 (= fluent_counter_t3@0 fluent_counter_t3@1))) (let ((.def_47 (not .def_46))) (let ((.def_48 (=> .def_47 .def_45))) (let ((.def_49 (and act_make_treatment@1 true .def_16))) (let ((.def_50 (= fluent_counter_t2@0 fluent_counter_t2@1))) (let ((.def_51 (not .def_50))) (let ((.def_52 (=> .def_51 .def_49))) (let ((.def_53 (and act_make_treatment@1 true .def_17))) (let ((.def_54 (= fluent_counter_t1@0 fluent_counter_t1@1))) (let ((.def_55 (not .def_54))) (let ((.def_56 (=> .def_55 .def_53))) (let ((.def_57 (and act_make_treatment@1 true .def_18))) (let ((.def_58 (= fluent_counter_t0@0 fluent_counter_t0@1))) (let ((.def_59 (not .def_58))) (let ((.def_60 (=> .def_59 .def_57))) (let ((.def_61 (+ t@1 10.0))) (let ((.def_62 (= t@1 .def_61))) (let ((.def_63 (and act_make_treatment@1 true .def_62 .def_24 .def_2))) (let ((.def_64 (= fluent_ready_i1_t6@0 fluent_ready_i1_t6@1))) (let ((.def_65 (not .def_64))) (let ((.def_66 (=> .def_65 .def_63))) (let ((.def_67 (and act_make_treatment@1 true .def_62 .def_25 .def_2))) (let ((.def_68 (= fluent_ready_i0_t6@0 fluent_ready_i0_t6@1))) (let ((.def_69 (not .def_68))) (let ((.def_70 (=> .def_69 .def_67))) (let ((.def_71 (and act_make_treatment@1 true .def_62 .def_24 .def_3))) (let ((.def_72 (= fluent_ready_i1_t5@0 fluent_ready_i1_t5@1))) (let ((.def_73 (not .def_72))) (let ((.def_74 (=> .def_73 .def_71))) (let ((.def_75 (and act_make_treatment@1 true .def_62 .def_25 .def_3))) (let ((.def_76 (= fluent_ready_i0_t5@0 fluent_ready_i0_t5@1))) (let ((.def_77 (not .def_76))) (let ((.def_78 (=> .def_77 .def_75))) (let ((.def_79 (and act_make_treatment@1 true .def_62 .def_24 .def_4))) (let ((.def_80 (= fluent_ready_i1_t4@0 fluent_ready_i1_t4@1))) (let ((.def_81 (not .def_80))) (let ((.def_82 (=> .def_81 .def_79))) (let ((.def_83 (and act_make_treatment@1 true .def_62 .def_25 .def_4))) (let ((.def_84 (= fluent_ready_i0_t4@0 fluent_ready_i0_t4@1))) (let ((.def_85 (not .def_84))) (let ((.def_86 (=> .def_85 .def_83))) (let ((.def_87 (and act_make_treatment@1 true .def_62 .def_24 .def_5))) (let ((.def_88 (= fluent_ready_i1_t3@0 fluent_ready_i1_t3@1))) (let ((.def_89 (not .def_88))) (let ((.def_90 (=> .def_89 .def_87))) (let ((.def_91 (and act_make_treatment@1 true .def_62 .def_25 .def_5))) (let ((.def_92 (= fluent_ready_i0_t3@0 fluent_ready_i0_t3@1))) (let ((.def_93 (not .def_92))) (let ((.def_94 (=> .def_93 .def_91))) (let ((.def_95 (and act_make_treatment@1 true .def_62 .def_24 .def_6))) (let ((.def_96 (= fluent_ready_i1_t2@0 fluent_ready_i1_t2@1))) (let ((.def_97 (not .def_96))) (let ((.def_98 (=> .def_97 .def_95))) (let ((.def_99 (and act_make_treatment@1 true .def_62 .def_25 .def_6))) (let ((.def_100 (= fluent_ready_i0_t2@0 fluent_ready_i0_t2@1))) (let ((.def_101 (not .def_100))) (let ((.def_102 (=> .def_101 .def_99))) (let ((.def_103 (and act_make_treatment@1 true .def_62 .def_24 .def_7))) (let ((.def_104 (= fluent_ready_i1_t1@0 fluent_ready_i1_t1@1))) (let ((.def_105 (not .def_104))) (let ((.def_106 (=> .def_105 .def_103))) (let ((.def_107 (and act_make_treatment@1 true .def_62 .def_25 .def_7))) (let ((.def_108 (= fluent_ready_i0_t1@0 fluent_ready_i0_t1@1))) (let ((.def_109 (not .def_108))) (let ((.def_110 (=> .def_109 .def_107))) (let ((.def_111 (and act_make_treatment@1 true .def_62 .def_24 .def_8))) (let ((.def_112 (= fluent_ready_i1_t0@0 fluent_ready_i1_t0@1))) (let ((.def_113 (not .def_112))) (let ((.def_114 (=> .def_113 .def_111))) (let ((.def_115 (and act_make_treatment@1 true .def_62 .def_25 .def_8))) (let ((.def_116 (= fluent_ready_i0_t0@0 fluent_ready_i0_t0@1))) (let ((.def_117 (not .def_116))) (let ((.def_118 (=> .def_117 .def_115))) (let ((.def_119 (and act_make_treatment@1 true .def_24 .def_12))) (let ((.def_120 (= fluent_started_i1_t6@0 fluent_started_i1_t6@1))) (let ((.def_121 (not .def_120))) (let ((.def_122 (=> .def_121 .def_119))) (let ((.def_123 (and act_make_treatment@1 true .def_25 .def_12))) (let ((.def_124 (= fluent_started_i0_t6@0 fluent_started_i0_t6@1))) (let ((.def_125 (not .def_124))) (let ((.def_126 (=> .def_125 .def_123))) (let ((.def_127 (and act_make_treatment@1 true .def_24 .def_13))) (let ((.def_128 (= fluent_started_i1_t5@0 fluent_started_i1_t5@1))) (let ((.def_129 (not .def_128))) (let ((.def_130 (=> .def_129 .def_127))) (let ((.def_131 (and act_make_treatment@1 true .def_25 .def_13))) (let ((.def_132 (= fluent_started_i0_t5@0 fluent_started_i0_t5@1))) (let ((.def_133 (not .def_132))) (let ((.def_134 (=> .def_133 .def_131))) (let ((.def_135 (and act_make_treatment@1 true .def_24 .def_14))) (let ((.def_136 (= fluent_started_i1_t4@0 fluent_started_i1_t4@1))) (let ((.def_137 (not .def_136))) (let ((.def_138 (=> .def_137 .def_135))) (let ((.def_139 (and act_make_treatment@1 true .def_25 .def_14))) (let ((.def_140 (= fluent_started_i0_t4@0 fluent_started_i0_t4@1))) (let ((.def_141 (not .def_140))) (let ((.def_142 (=> .def_141 .def_139))) (let ((.def_143 (and act_make_treatment@1 true .def_24 .def_15))) (let ((.def_144 (= fluent_started_i1_t3@0 fluent_started_i1_t3@1))) (let ((.def_145 (not .def_144))) (let ((.def_146 (=> .def_145 .def_143))) (let ((.def_147 (and act_make_treatment@1 true .def_25 .def_15))) (let ((.def_148 (= fluent_started_i0_t3@0 fluent_started_i0_t3@1))) (let ((.def_149 (not .def_148))) (let ((.def_150 (=> .def_149 .def_147))) (let ((.def_151 (and act_make_treatment@1 true .def_24 .def_16))) (let ((.def_152 (= fluent_started_i1_t2@0 fluent_started_i1_t2@1))) (let ((.def_153 (not .def_152))) (let ((.def_154 (=> .def_153 .def_151))) (let ((.def_155 (and act_make_treatment@1 true .def_25 .def_16))) (let ((.def_156 (= fluent_started_i0_t2@0 fluent_started_i0_t2@1))) (let ((.def_157 (not .def_156))) (let ((.def_158 (=> .def_157 .def_155))) (let ((.def_159 (and act_make_treatment@1 true .def_24 .def_17))) (let ((.def_160 (= fluent_started_i1_t1@0 fluent_started_i1_t1@1))) (let ((.def_161 (not .def_160))) (let ((.def_162 (=> .def_161 .def_159))) (let ((.def_163 (and act_make_treatment@1 true .def_25 .def_17))) (let ((.def_164 (= fluent_started_i0_t1@0 fluent_started_i0_t1@1))) (let ((.def_165 (not .def_164))) (let ((.def_166 (=> .def_165 .def_163))) (let ((.def_167 (and act_make_treatment@1 true .def_24 .def_18))) (let ((.def_168 (= fluent_started_i1_t0@0 fluent_started_i1_t0@1))) (let ((.def_169 (not .def_168))) (let ((.def_170 (=> .def_169 .def_167))) (let ((.def_171 (and act_make_treatment@1 true .def_25 .def_18))) (let ((.def_172 (= fluent_started_i0_t0@0 fluent_started_i0_t0@1))) (let ((.def_173 (not .def_172))) (let ((.def_174 (=> .def_173 .def_171))) (let ((.def_175 (+ t@1 4.0))) (let ((.def_176 (= t@1 .def_175))) (let ((.def_177 (and act_make_treatment@1 true .def_176 .def_24 .def_12))) (let ((.def_178 (= fluent_treated_i1_t6@0 fluent_treated_i1_t6@1))) (let ((.def_179 (not .def_178))) (let ((.def_180 (=> .def_179 .def_177))) (let ((.def_181 (and act_make_treatment@1 true .def_176 .def_25 .def_12))) (let ((.def_182 (= fluent_treated_i0_t6@0 fluent_treated_i0_t6@1))) (let ((.def_183 (not .def_182))) (let ((.def_184 (=> .def_183 .def_181))) (let ((.def_185 (and act_make_treatment@1 true .def_176 .def_24 .def_13))) (let ((.def_186 (= fluent_treated_i1_t5@0 fluent_treated_i1_t5@1))) (let ((.def_187 (not .def_186))) (let ((.def_188 (=> .def_187 .def_185))) (let ((.def_189 (and act_make_treatment@1 true .def_176 .def_25 .def_13))) (let ((.def_190 (= fluent_treated_i0_t5@0 fluent_treated_i0_t5@1))) (let ((.def_191 (not .def_190))) (let ((.def_192 (=> .def_191 .def_189))) (let ((.def_193 (and act_make_treatment@1 true .def_176 .def_24 .def_14))) (let ((.def_194 (= fluent_treated_i1_t4@0 fluent_treated_i1_t4@1))) (let ((.def_195 (not .def_194))) (let ((.def_196 (=> .def_195 .def_193))) (let ((.def_197 (and act_make_treatment@1 true .def_176 .def_25 .def_14))) (let ((.def_198 (= fluent_treated_i0_t4@0 fluent_treated_i0_t4@1))) (let ((.def_199 (not .def_198))) (let ((.def_200 (=> .def_199 .def_197))) (let ((.def_201 (and act_make_treatment@1 true .def_176 .def_24 .def_15))) (let ((.def_202 (= fluent_treated_i1_t3@0 fluent_treated_i1_t3@1))) (let ((.def_203 (not .def_202))) (let ((.def_204 (=> .def_203 .def_201))) (let ((.def_205 (and act_make_treatment@1 true .def_176 .def_25 .def_15))) (let ((.def_206 (= fluent_treated_i0_t3@0 fluent_treated_i0_t3@1))) (let ((.def_207 (not .def_206))) (let ((.def_208 (=> .def_207 .def_205))) (let ((.def_209 (and act_make_treatment@1 true .def_176 .def_24 .def_16))) (let ((.def_210 (= fluent_treated_i1_t2@0 fluent_treated_i1_t2@1))) (let ((.def_211 (not .def_210))) (let ((.def_212 (=> .def_211 .def_209))) (let ((.def_213 (and act_make_treatment@1 true .def_176 .def_25 .def_16))) (let ((.def_214 (= fluent_treated_i0_t2@0 fluent_treated_i0_t2@1))) (let ((.def_215 (not .def_214))) (let ((.def_216 (=> .def_215 .def_213))) (let ((.def_217 (and act_make_treatment@1 true .def_176 .def_24 .def_17))) (let ((.def_218 (= fluent_treated_i1_t1@0 fluent_treated_i1_t1@1))) (let ((.def_219 (not .def_218))) (let ((.def_220 (=> .def_219 .def_217))) (let ((.def_221 (and act_make_treatment@1 true .def_176 .def_25 .def_17))) (let ((.def_222 (= fluent_treated_i0_t1@0 fluent_treated_i0_t1@1))) (let ((.def_223 (not .def_222))) (let ((.def_224 (=> .def_223 .def_221))) (let ((.def_225 (and act_make_treatment@1 true .def_176 .def_24 .def_18))) (let ((.def_226 (= fluent_treated_i1_t0@0 fluent_treated_i1_t0@1))) (let ((.def_227 (not .def_226))) (let ((.def_228 (=> .def_227 .def_225))) (let ((.def_229 (and act_make_treatment@1 true .def_176 .def_25 .def_18))) (let ((.def_230 (= fluent_treated_i0_t0@0 fluent_treated_i0_t0@1))) (let ((.def_231 (not .def_230))) (let ((.def_232 (=> .def_231 .def_229))) (let ((.def_233 (and act_make_treatment@1 true .def_176))) (let ((.def_234 (and act_make_treatment@1 true))) (let ((.def_235 (and .def_234 .def_233))) (let ((.def_236 (not .def_235))) (let ((.def_237 (or .def_234 .def_233))) (let ((.def_238 (= fluent_busy_@0 fluent_busy_@1))) (let ((.def_239 (not .def_238))) (let ((.def_240 (=> .def_239 .def_237))) (let ((.def_241 (and .def_240 .def_236 .def_232 .def_228 .def_224 .def_220 .def_216 .def_212 .def_208 .def_204 .def_200 .def_196 .def_192 .def_188 .def_184 .def_180 .def_174 .def_170 .def_166 .def_162 .def_158 .def_154 .def_150 .def_146 .def_142 .def_138 .def_134 .def_130 .def_126 .def_122 .def_118 .def_114 .def_110 .def_106 .def_102 .def_98 .def_94 .def_90 .def_86 .def_82 .def_78 .def_74 .def_70 .def_66 .def_60 .def_56 .def_52 .def_48 .def_44 .def_40 .def_36))) (let ((.def_242 (<= 0.0 t@1))) (let ((.def_243 (and .def_24 .def_8))) (let ((.def_244 (ite .def_243 fluent_ready_i1_t0@1 fluent_ready_i0_t0@1))) (let ((.def_245 (and .def_25 .def_7))) (let ((.def_246 (ite .def_245 fluent_ready_i0_t1@1 .def_244))) (let ((.def_247 (and .def_24 .def_7))) (let ((.def_248 (ite .def_247 fluent_ready_i1_t1@1 .def_246))) (let ((.def_249 (and .def_25 .def_6))) (let ((.def_250 (ite .def_249 fluent_ready_i0_t2@1 .def_248))) (let ((.def_251 (and .def_24 .def_6))) (let ((.def_252 (ite .def_251 fluent_ready_i1_t2@1 .def_250))) (let ((.def_253 (and .def_25 .def_5))) (let ((.def_254 (ite .def_253 fluent_ready_i0_t3@1 .def_252))) (let ((.def_255 (and .def_24 .def_5))) (let ((.def_256 (ite .def_255 fluent_ready_i1_t3@1 .def_254))) (let ((.def_257 (and .def_25 .def_4))) (let ((.def_258 (ite .def_257 fluent_ready_i0_t4@1 .def_256))) (let ((.def_259 (and .def_24 .def_4))) (let ((.def_260 (ite .def_259 fluent_ready_i1_t4@1 .def_258))) (let ((.def_261 (and .def_25 .def_3))) (let ((.def_262 (ite .def_261 fluent_ready_i0_t5@1 .def_260))) (let ((.def_263 (and .def_24 .def_3))) (let ((.def_264 (ite .def_263 fluent_ready_i1_t5@1 .def_262))) (let ((.def_265 (and .def_25 .def_2))) (let ((.def_266 (ite .def_265 fluent_ready_i0_t6@1 .def_264))) (let ((.def_267 (and .def_24 .def_2))) (let ((.def_268 (ite .def_267 fluent_ready_i1_t6@1 .def_266))) (let ((.def_269 (= .def_268 true))) (let ((.def_270 (=> true .def_269))) (let ((.def_271 (and .def_62 .def_270))) (let ((.def_272 (= fluent_busy_@1 false))) (let ((.def_273 (=> true .def_272))) (let ((.def_274 (and .def_24 .def_18))) (let ((.def_275 (ite .def_274 fluent_treated_i1_t0@1 fluent_treated_i0_t0@1))) (let ((.def_276 (and .def_25 .def_17))) (let ((.def_277 (ite .def_276 fluent_treated_i0_t1@1 .def_275))) (let ((.def_278 (and .def_24 .def_17))) (let ((.def_279 (ite .def_278 fluent_treated_i1_t1@1 .def_277))) (let ((.def_280 (and .def_25 .def_16))) (let ((.def_281 (ite .def_280 fluent_treated_i0_t2@1 .def_279))) (let ((.def_282 (and .def_24 .def_16))) (let ((.def_283 (ite .def_282 fluent_treated_i1_t2@1 .def_281))) (let ((.def_284 (and .def_25 .def_15))) (let ((.def_285 (ite .def_284 fluent_treated_i0_t3@1 .def_283))) (let ((.def_286 (and .def_24 .def_15))) (let ((.def_287 (ite .def_286 fluent_treated_i1_t3@1 .def_285))) (let ((.def_288 (and .def_25 .def_14))) (let ((.def_289 (ite .def_288 fluent_treated_i0_t4@1 .def_287))) (let ((.def_290 (and .def_24 .def_14))) (let ((.def_291 (ite .def_290 fluent_treated_i1_t4@1 .def_289))) (let ((.def_292 (and .def_25 .def_13))) (let ((.def_293 (ite .def_292 fluent_treated_i0_t5@1 .def_291))) (let ((.def_294 (and .def_24 .def_13))) (let ((.def_295 (ite .def_294 fluent_treated_i1_t5@1 .def_293))) (let ((.def_296 (and .def_25 .def_12))) (let ((.def_297 (ite .def_296 fluent_treated_i0_t6@1 .def_295))) (let ((.def_298 (and .def_24 .def_12))) (let ((.def_299 (ite .def_298 fluent_treated_i1_t6@1 .def_297))) (let ((.def_300 (= .def_299 true))) (let ((.def_301 (=> true .def_300))) (let ((.def_302 (and .def_176 .def_301 .def_273))) (let ((.def_303 (ite .def_274 fluent_started_i1_t0@1 fluent_started_i0_t0@1))) (let ((.def_304 (ite .def_276 fluent_started_i0_t1@1 .def_303))) (let ((.def_305 (ite .def_278 fluent_started_i1_t1@1 .def_304))) (let ((.def_306 (ite .def_280 fluent_started_i0_t2@1 .def_305))) (let ((.def_307 (ite .def_282 fluent_started_i1_t2@1 .def_306))) (let ((.def_308 (ite .def_284 fluent_started_i0_t3@1 .def_307))) (let ((.def_309 (ite .def_286 fluent_started_i1_t3@1 .def_308))) (let ((.def_310 (ite .def_288 fluent_started_i0_t4@1 .def_309))) (let ((.def_311 (ite .def_290 fluent_started_i1_t4@1 .def_310))) (let ((.def_312 (ite .def_292 fluent_started_i0_t5@1 .def_311))) (let ((.def_313 (ite .def_294 fluent_started_i1_t5@1 .def_312))) (let ((.def_314 (ite .def_296 fluent_started_i0_t6@1 .def_313))) (let ((.def_315 (ite .def_298 fluent_started_i1_t6@1 .def_314))) (let ((.def_316 (= .def_315 true))) (let ((.def_317 (=> true .def_316))) (let ((.def_318 (= fluent_busy_@1 true))) (let ((.def_319 (=> true .def_318))) (let ((.def_320 (ite .def_17 fluent_counter_t1@0 fluent_counter_t0@0))) (let ((.def_321 (ite .def_16 fluent_counter_t2@0 .def_320))) (let ((.def_322 (ite .def_15 fluent_counter_t3@0 .def_321))) (let ((.def_323 (ite .def_14 fluent_counter_t4@0 .def_322))) (let ((.def_324 (ite .def_13 fluent_counter_t5@0 .def_323))) (let ((.def_325 (ite .def_12 fluent_counter_t6@0 .def_324))) (let ((.def_326 (+ .def_325 1.0))) (let ((.def_327 (ite .def_17 fluent_counter_t1@1 fluent_counter_t0@1))) (let ((.def_328 (ite .def_16 fluent_counter_t2@1 .def_327))) (let ((.def_329 (ite .def_15 fluent_counter_t3@1 .def_328))) (let ((.def_330 (ite .def_14 fluent_counter_t4@1 .def_329))) (let ((.def_331 (ite .def_13 fluent_counter_t5@1 .def_330))) (let ((.def_332 (ite .def_12 fluent_counter_t6@1 .def_331))) (let ((.def_333 (= .def_332 .def_326))) (let ((.def_334 (=> true .def_333))) (let ((.def_335 (= t@1 t@1))) (let ((.def_336 (and .def_335 .def_334 .def_319 .def_317))) (let ((.def_337 (ite .def_243 fluent_started_i1_t0@0 fluent_started_i0_t0@0))) (let ((.def_338 (ite .def_245 fluent_started_i0_t1@0 .def_337))) (let ((.def_339 (ite .def_247 fluent_started_i1_t1@0 .def_338))) (let ((.def_340 (ite .def_249 fluent_started_i0_t2@0 .def_339))) (let ((.def_341 (ite .def_251 fluent_started_i1_t2@0 .def_340))) (let ((.def_342 (ite .def_253 fluent_started_i0_t3@0 .def_341))) (let ((.def_343 (ite .def_255 fluent_started_i1_t3@0 .def_342))) (let ((.def_344 (ite .def_257 fluent_started_i0_t4@0 .def_343))) (let ((.def_345 (ite .def_259 fluent_started_i1_t4@0 .def_344))) (let ((.def_346 (ite .def_261 fluent_started_i0_t5@0 .def_345))) (let ((.def_347 (ite .def_263 fluent_started_i1_t5@0 .def_346))) (let ((.def_348 (ite .def_265 fluent_started_i0_t6@0 .def_347))) (let ((.def_349 (ite .def_267 fluent_started_i1_t6@0 .def_348))) (let ((.def_350 (+ t@1 dur_make_treatment@1))) (let ((.def_351 (<= .def_350 t@1))) (let ((.def_352 (< (- 1.0) .def_350))) (let ((.def_353 (and .def_352 .def_351))) (let ((.def_354 (=> .def_353 .def_349))) (let ((.def_355 (ite .def_274 fluent_ready_i1_t0@0 fluent_ready_i0_t0@0))) (let ((.def_356 (ite .def_276 fluent_ready_i0_t1@0 .def_355))) (let ((.def_357 (ite .def_278 fluent_ready_i1_t1@0 .def_356))) (let ((.def_358 (ite .def_280 fluent_ready_i0_t2@0 .def_357))) (let ((.def_359 (ite .def_282 fluent_ready_i1_t2@0 .def_358))) (let ((.def_360 (ite .def_284 fluent_ready_i0_t3@0 .def_359))) (let ((.def_361 (ite .def_286 fluent_ready_i1_t3@0 .def_360))) (let ((.def_362 (ite .def_288 fluent_ready_i0_t4@0 .def_361))) (let ((.def_363 (ite .def_290 fluent_ready_i1_t4@0 .def_362))) (let ((.def_364 (ite .def_292 fluent_ready_i0_t5@0 .def_363))) (let ((.def_365 (ite .def_294 fluent_ready_i1_t5@0 .def_364))) (let ((.def_366 (ite .def_296 fluent_ready_i0_t6@0 .def_365))) (let ((.def_367 (ite .def_298 fluent_ready_i1_t6@0 .def_366))) (let ((.def_368 (ite .def_274 fluent_started_i1_t0@0 fluent_started_i0_t0@0))) (let ((.def_369 (ite .def_276 fluent_started_i0_t1@0 .def_368))) (let ((.def_370 (ite .def_278 fluent_started_i1_t1@0 .def_369))) (let ((.def_371 (ite .def_280 fluent_started_i0_t2@0 .def_370))) (let ((.def_372 (ite .def_282 fluent_started_i1_t2@0 .def_371))) (let ((.def_373 (ite .def_284 fluent_started_i0_t3@0 .def_372))) (let ((.def_374 (ite .def_286 fluent_started_i1_t3@0 .def_373))) (let ((.def_375 (ite .def_288 fluent_started_i0_t4@0 .def_374))) (let ((.def_376 (ite .def_290 fluent_started_i1_t4@0 .def_375))) (let ((.def_377 (ite .def_292 fluent_started_i0_t5@0 .def_376))) (let ((.def_378 (ite .def_294 fluent_started_i1_t5@0 .def_377))) (let ((.def_379 (ite .def_296 fluent_started_i0_t6@0 .def_378))) (let ((.def_380 (ite .def_298 fluent_started_i1_t6@0 .def_379))) (let ((.def_381 (not .def_380))) (let ((.def_382 (ite .def_274 fluent_treated_i1_t0@0 fluent_treated_i0_t0@0))) (let ((.def_383 (ite .def_276 fluent_treated_i0_t1@0 .def_382))) (let ((.def_384 (ite .def_278 fluent_treated_i1_t1@0 .def_383))) (let ((.def_385 (ite .def_280 fluent_treated_i0_t2@0 .def_384))) (let ((.def_386 (ite .def_282 fluent_treated_i1_t2@0 .def_385))) (let ((.def_387 (ite .def_284 fluent_treated_i0_t3@0 .def_386))) (let ((.def_388 (ite .def_286 fluent_treated_i1_t3@0 .def_387))) (let ((.def_389 (ite .def_288 fluent_treated_i0_t4@0 .def_388))) (let ((.def_390 (ite .def_290 fluent_treated_i1_t4@0 .def_389))) (let ((.def_391 (ite .def_292 fluent_treated_i0_t5@0 .def_390))) (let ((.def_392 (ite .def_294 fluent_treated_i1_t5@0 .def_391))) (let ((.def_393 (ite .def_296 fluent_treated_i0_t6@0 .def_392))) (let ((.def_394 (ite .def_298 fluent_treated_i1_t6@0 .def_393))) (let ((.def_395 (not .def_394))) (let ((.def_396 (not fluent_busy_@0))) (let ((.def_397 (and .def_17 .def_8))) (let ((.def_398 (ite .def_397 false false))) (let ((.def_399 (and .def_16 .def_8))) (let ((.def_400 (ite .def_399 false .def_398))) (let ((.def_401 (and .def_15 .def_8))) (let ((.def_402 (ite .def_401 false .def_400))) (let ((.def_403 (and .def_14 .def_8))) (let ((.def_404 (ite .def_403 false .def_402))) (let ((.def_405 (and .def_13 .def_8))) (let ((.def_406 (ite .def_405 false .def_404))) (let ((.def_407 (and .def_12 .def_8))) (let ((.def_408 (ite .def_407 false .def_406))) (let ((.def_409 (and .def_18 .def_7))) (let ((.def_410 (ite .def_409 true .def_408))) (let ((.def_411 (and .def_17 .def_7))) (let ((.def_412 (ite .def_411 false .def_410))) (let ((.def_413 (and .def_16 .def_7))) (let ((.def_414 (ite .def_413 false .def_412))) (let ((.def_415 (and .def_15 .def_7))) (let ((.def_416 (ite .def_415 false .def_414))) (let ((.def_417 (and .def_14 .def_7))) (let ((.def_418 (ite .def_417 false .def_416))) (let ((.def_419 (and .def_13 .def_7))) (let ((.def_420 (ite .def_419 false .def_418))) (let ((.def_421 (and .def_12 .def_7))) (let ((.def_422 (ite .def_421 false .def_420))) (let ((.def_423 (and .def_18 .def_6))) (let ((.def_424 (ite .def_423 false .def_422))) (let ((.def_425 (and .def_17 .def_6))) (let ((.def_426 (ite .def_425 true .def_424))) (let ((.def_427 (and .def_16 .def_6))) (let ((.def_428 (ite .def_427 false .def_426))) (let ((.def_429 (and .def_15 .def_6))) (let ((.def_430 (ite .def_429 false .def_428))) (let ((.def_431 (and .def_14 .def_6))) (let ((.def_432 (ite .def_431 false .def_430))) (let ((.def_433 (and .def_13 .def_6))) (let ((.def_434 (ite .def_433 false .def_432))) (let ((.def_435 (and .def_12 .def_6))) (let ((.def_436 (ite .def_435 false .def_434))) (let ((.def_437 (and .def_18 .def_5))) (let ((.def_438 (ite .def_437 false .def_436))) (let ((.def_439 (and .def_17 .def_5))) (let ((.def_440 (ite .def_439 false .def_438))) (let ((.def_441 (and .def_16 .def_5))) (let ((.def_442 (ite .def_441 true .def_440))) (let ((.def_443 (and .def_15 .def_5))) (let ((.def_444 (ite .def_443 false .def_442))) (let ((.def_445 (and .def_14 .def_5))) (let ((.def_446 (ite .def_445 false .def_444))) (let ((.def_447 (and .def_13 .def_5))) (let ((.def_448 (ite .def_447 false .def_446))) (let ((.def_449 (and .def_12 .def_5))) (let ((.def_450 (ite .def_449 false .def_448))) (let ((.def_451 (and .def_18 .def_4))) (let ((.def_452 (ite .def_451 false .def_450))) (let ((.def_453 (and .def_17 .def_4))) (let ((.def_454 (ite .def_453 false .def_452))) (let ((.def_455 (and .def_16 .def_4))) (let ((.def_456 (ite .def_455 false .def_454))) (let ((.def_457 (and .def_15 .def_4))) (let ((.def_458 (ite .def_457 true .def_456))) (let ((.def_459 (and .def_14 .def_4))) (let ((.def_460 (ite .def_459 false .def_458))) (let ((.def_461 (and .def_13 .def_4))) (let ((.def_462 (ite .def_461 false .def_460))) (let ((.def_463 (and .def_12 .def_4))) (let ((.def_464 (ite .def_463 false .def_462))) (let ((.def_465 (and .def_18 .def_3))) (let ((.def_466 (ite .def_465 false .def_464))) (let ((.def_467 (and .def_17 .def_3))) (let ((.def_468 (ite .def_467 false .def_466))) (let ((.def_469 (and .def_16 .def_3))) (let ((.def_470 (ite .def_469 false .def_468))) (let ((.def_471 (and .def_15 .def_3))) (let ((.def_472 (ite .def_471 false .def_470))) (let ((.def_473 (and .def_14 .def_3))) (let ((.def_474 (ite .def_473 true .def_472))) (let ((.def_475 (and .def_13 .def_3))) (let ((.def_476 (ite .def_475 false .def_474))) (let ((.def_477 (and .def_12 .def_3))) (let ((.def_478 (ite .def_477 false .def_476))) (let ((.def_479 (and .def_18 .def_2))) (let ((.def_480 (ite .def_479 false .def_478))) (let ((.def_481 (and .def_17 .def_2))) (let ((.def_482 (ite .def_481 false .def_480))) (let ((.def_483 (and .def_16 .def_2))) (let ((.def_484 (ite .def_483 false .def_482))) (let ((.def_485 (and .def_15 .def_2))) (let ((.def_486 (ite .def_485 false .def_484))) (let ((.def_487 (and .def_14 .def_2))) (let ((.def_488 (ite .def_487 false .def_486))) (let ((.def_489 (and .def_13 .def_2))) (let ((.def_490 (ite .def_489 true .def_488))) (let ((.def_491 (and .def_12 .def_2))) (let ((.def_492 (ite .def_491 false .def_490))) (let ((.def_493 (ite .def_24 1.0 0.0))) (let ((.def_494 (= .def_493 .def_325))) (let ((.def_495 (and .def_494 .def_492 .def_396 .def_395 .def_381 .def_367))) (let ((.def_496 (<= t@1 t@1))) (let ((.def_497 (< (- 1.0) t@1))) (let ((.def_498 (and .def_497 .def_496))) (let ((.def_499 (=> .def_498 .def_495))) (let ((.def_500 (<= dur_make_treatment@1 15.0))) (let ((.def_501 (<= 15.0 dur_make_treatment@1))) (let ((.def_502 (and .def_501 .def_500))) (let ((.def_503 (and .def_502 .def_351 .def_499 .def_354 .def_336 .def_302 .def_271))) (let ((.def_504 (=> act_make_treatment@1 .def_503))) (let ((.def_505 (<= fluent_counter_t6@0 31.0))) (let ((.def_506 (<= 0.0 fluent_counter_t6@0))) (let ((.def_507 (<= fluent_counter_t5@0 31.0))) (let ((.def_508 (<= 0.0 fluent_counter_t5@0))) (let ((.def_509 (<= fluent_counter_t4@0 31.0))) (let ((.def_510 (<= 0.0 fluent_counter_t4@0))) (let ((.def_511 (<= fluent_counter_t3@0 31.0))) (let ((.def_512 (<= 0.0 fluent_counter_t3@0))) (let ((.def_513 (<= fluent_counter_t2@0 31.0))) (let ((.def_514 (<= 0.0 fluent_counter_t2@0))) (let ((.def_515 (<= fluent_counter_t1@0 31.0))) (let ((.def_516 (<= 0.0 fluent_counter_t1@0))) (let ((.def_517 (<= fluent_counter_t0@0 31.0))) (let ((.def_518 (<= 0.0 fluent_counter_t0@0))) (let ((.def_519 (= fluent_counter_t6@0 0.0))) (let ((.def_520 (= fluent_counter_t5@0 0.0))) (let ((.def_521 (= fluent_counter_t4@0 0.0))) (let ((.def_522 (= fluent_counter_t3@0 0.0))) (let ((.def_523 (= fluent_counter_t2@0 0.0))) (let ((.def_524 (= fluent_counter_t1@0 0.0))) (let ((.def_525 (= fluent_counter_t0@0 0.0))) (let ((.def_526 (= false false))) (let ((.def_527 (= fluent_ready_i1_t6@0 false))) (let ((.def_528 (= fluent_ready_i0_t6@0 false))) (let ((.def_529 (= fluent_ready_i1_t5@0 false))) (let ((.def_530 (= fluent_ready_i0_t5@0 false))) (let ((.def_531 (= fluent_ready_i1_t4@0 false))) (let ((.def_532 (= fluent_ready_i0_t4@0 false))) (let ((.def_533 (= fluent_ready_i1_t3@0 false))) (let ((.def_534 (= fluent_ready_i0_t3@0 false))) (let ((.def_535 (= fluent_ready_i1_t2@0 false))) (let ((.def_536 (= fluent_ready_i0_t2@0 false))) (let ((.def_537 (= fluent_ready_i1_t1@0 false))) (let ((.def_538 (= fluent_ready_i0_t1@0 false))) (let ((.def_539 (= fluent_started_i1_t5@0 false))) (let ((.def_540 (= fluent_started_i0_t5@0 false))) (let ((.def_541 (= fluent_started_i1_t4@0 false))) (let ((.def_542 (= fluent_started_i0_t4@0 false))) (let ((.def_543 (= fluent_started_i1_t3@0 false))) (let ((.def_544 (= fluent_started_i0_t3@0 false))) (let ((.def_545 (= fluent_started_i1_t2@0 false))) (let ((.def_546 (= fluent_started_i0_t2@0 false))) (let ((.def_547 (= fluent_started_i1_t1@0 false))) (let ((.def_548 (= fluent_started_i0_t1@0 false))) (let ((.def_549 (= fluent_started_i1_t0@0 false))) (let ((.def_550 (= fluent_started_i0_t0@0 false))) (let ((.def_551 (= fluent_treated_i1_t6@0 false))) (let ((.def_552 (= fluent_treated_i0_t6@0 false))) (let ((.def_553 (= fluent_treated_i1_t5@0 false))) (let ((.def_554 (= fluent_treated_i0_t5@0 false))) (let ((.def_555 (= fluent_treated_i1_t4@0 false))) (let ((.def_556 (= fluent_treated_i0_t4@0 false))) (let ((.def_557 (= fluent_treated_i1_t3@0 false))) (let ((.def_558 (= fluent_treated_i0_t3@0 false))) (let ((.def_559 (= fluent_treated_i1_t2@0 false))) (let ((.def_560 (= fluent_treated_i0_t2@0 false))) (let ((.def_561 (= fluent_treated_i1_t1@0 false))) (let ((.def_562 (= fluent_treated_i0_t1@0 false))) (let ((.def_563 (= fluent_treated_i1_t0@0 false))) (let ((.def_564 (= fluent_treated_i0_t0@0 false))) (let ((.def_565 (= fluent_busy_@0 false))) (let ((.def_566 (= fluent_ready_i1_t0@0 true))) (let ((.def_567 (= fluent_started_i1_t6@0 true))) (let ((.def_568 (= fluent_ready_i0_t0@0 true))) (let ((.def_569 (= fluent_started_i0_t6@0 true))) (let ((.def_570 (= true true))) (let ((.def_571 (= 1.0 1.0))) (let ((.def_572 (= 0.0 0.0))) (let ((.def_573 (and .def_572 .def_571 .def_570 .def_570 .def_570 .def_570 .def_570 .def_570 .def_569 .def_568 .def_567 .def_566 .def_565 .def_564 .def_563 .def_562 .def_561 .def_560 .def_559 .def_558 .def_557 .def_556 .def_555 .def_554 .def_553 .def_552 .def_551 .def_550 .def_549 .def_548 .def_547 .def_546 .def_545 .def_544 .def_543 .def_542 .def_541 .def_540 .def_539 .def_538 .def_537 .def_536 .def_535 .def_534 .def_533 .def_532 .def_531 .def_530 .def_529 .def_528 .def_527 .def_526 .def_526 .def_526 .def_526 .def_526 .def_526 .def_526 .def_526 .def_526 .def_526 .def_526 .def_526 .def_526 .def_526 .def_526 .def_526 .def_526 .def_526 .def_526 .def_526 .def_526 .def_526 .def_526 .def_526 .def_526 .def_526 .def_526 .def_526 .def_526 .def_526 .def_526 .def_526 .def_526 .def_526 .def_526 .def_526 .def_526 .def_526 .def_526 .def_526 .def_526 .def_526 .def_526 .def_525 .def_524 .def_523 .def_522 .def_521 .def_520 .def_519 .def_518 .def_517 .def_516 .def_515 .def_514 .def_513 .def_512 .def_511 .def_510 .def_509 .def_508 .def_507 .def_506 .def_505))) (let ((.def_574 (and .def_573 .def_504 .def_242 true true .def_241 .def_32 .def_31 .def_30 .def_29 .def_28 .def_27 .def_26 .def_23 .def_22 .def_21 .def_20 .def_19 .def_11 .def_10 .def_9 .def_1 .def_0 true))) .def_574))))))))))))))))))))))))))))))))))))))))))))))))))))))))))))))))))))))))))))))))))))))))))))))))))))))))))))))))))))))))))))))))))))))))))))))))))))))))))))))))))))))))))))))))))))))))))))))))))))))))))))))))))))))))))))))))))))))))))))))))))))))))))))))))))))))))))))))))))))))))))))))))))))))))))))))))))))))))))))))))))))))))))))))))))))))))))))))))))))))))))))))))))))))))))))))))))))))))))))))))))))))))))))))))))))))))))))))))))))))))))))))))))))))))))))))))))))))))))))))))))))))))))))))))))))))))))))))))))))))))))))))))))))))))))))))))))))))))))))))))))))))))))))))))
(check-sat)

--------------------------------------------------------------------------------
